50 5
4 1 47
2 1 35
4 1 36
1 4 49
4 5 31
3 2 38
4 3 42
1 3 49
1 4 32
1 2 50
1 5 48
6 4 30
2 4 50
2 1 40
5 3 37
6 5 34
3 3 34
2 1 33
3 2 46
2 1 45
5 1 35
4 5 42
4 3 35
1 1 41
1 3 42
2 2 36
3 2 41
1 5 38
6 5 50
4 4 31
4 5 44
2 4 37
5 2 48
2 3 37
4 1 31
1 4 42
2 3 49
4 5 43
5 4 46
5 3 33
3 1 42
2 2 48
6 5 32
6 3 37
4 1 40
1 3 43
3 5 39
3 4 36
2 4 35
5 2 39
46 48 40 47 50
